sssd15-06.py
Ipopt 3.12.8: 
==> Warning: Treating 108 binary and 0 integer variables as continous.


******************************************************************************
This program contains Ipopt, a library for large-scale nonlinear optimization.
 Ipopt is released as open source code under the Eclipse Public License (EPL).
         For more information visit http://projects.coin-or.org/Ipopt
******************************************************************************

This is Ipopt version 3.12.8, running with linear solver ma27.

Number of nonzeros in equality constraint Jacobian...:      198
Number of nonzeros in inequality constraint Jacobian.:       90
Number of nonzeros in Lagrangian Hessian.............:        6

Total number of variables............................:      132
                     variables with only lower bounds:       24
                variables with lower and upper bounds:      108
                     variables with only upper bounds:        0
Total number of equality constraints.................:       21
Total number of inequality constraints...............:       42
        inequality constraints with only lower bounds:        0
   inequality constraints with lower and upper bounds:        0
        inequality constraints with only upper bounds:       42

iter    objective    inf_pr   inf_du lg(mu)  ||d||  lg(rg) alpha_du alpha_pr  ls
   0  6.5387904e+03 9.40e-01 2.86e+01  -1.0 0.00e+00    -  0.00e+00 0.00e+00   0
   1  6.6849071e+03 9.09e-01 2.70e+01  -1.0 5.84e-01    -  4.91e-02 3.25e-02f  1
   2  2.0767658e+04 8.24e-01 2.87e+01  -1.0 8.51e-01    -  5.02e-02 9.40e-02h  1
   3  4.7505120e+04 6.61e-01 1.82e+01  -1.0 8.64e-01    -  4.11e-01 1.98e-01h  1
   4  1.4752566e+05 1.11e-01 2.38e+01  -1.0 7.29e-01    -  3.50e-01 8.32e-01h  1
   5  1.9085477e+05 2.52e-03 1.07e+00  -1.0 2.21e-01    -  1.00e+00 1.00e+00h  1
   6  1.9363176e+05 1.11e-15 1.25e-02  -1.0 3.65e-02    -  1.00e+00 1.00e+00h  1
   7  1.9112029e+05 1.84e-04 9.34e-01  -2.5 2.45e-01    -  6.03e-01 9.95e-01f  1
   8  1.9026266e+05 6.66e-16 5.02e-01  -2.5 3.19e-01    -  6.11e-01 1.00e+00f  1
   9  1.8964601e+05 6.66e-16 7.93e-02  -2.5 5.07e-01    -  7.20e-01 1.00e+00f  1
iter    objective    inf_pr   inf_du lg(mu)  ||d||  lg(rg) alpha_du alpha_pr  ls
  10  1.8949425e+05 8.88e-16 1.62e-04  -2.5 2.08e-01    -  1.00e+00 1.00e+00f  1
  11  1.8928047e+05 6.66e-16 5.62e-02  -3.8 2.93e-01    -  6.46e-01 7.84e-01f  1
  12  1.8921632e+05 1.81e-07 3.41e-02  -3.8 3.72e-01    -  8.11e-01 8.81e-01f  1
  13  1.8920570e+05 6.66e-16 6.00e-03  -3.8 1.09e-01    -  7.96e-01 9.87e-01f  1
  14  1.8920495e+05 6.66e-16 1.54e-06  -3.8 3.49e-02    -  1.00e+00 1.00e+00f  1
  15  1.8918918e+05 6.66e-16 1.69e-03  -5.7 7.42e-02    -  7.63e-01 9.27e-01f  1
  16  1.8918794e+05 6.66e-16 5.87e-03  -5.7 1.41e-01    -  6.00e-01 8.53e-01f  1
  17  1.8918767e+05 4.44e-16 8.15e-05  -5.7 1.89e-01    -  1.00e+00 9.88e-01f  1
  18  1.8918767e+05 6.66e-16 3.16e-09  -5.7 7.79e-03    -  1.00e+00 1.00e+00f  1
  19  1.8918745e+05 8.88e-16 3.44e-05  -8.6 2.00e-02    -  9.62e-01 9.86e-01f  1
iter    objective    inf_pr   inf_du lg(mu)  ||d||  lg(rg) alpha_du alpha_pr  ls
  20  1.8918744e+05 8.88e-16 2.32e-11  -8.6 4.36e-04    -  1.00e+00 1.00e+00f  1

Number of Iterations....: 20

                                   (scaled)                 (unscaled)
Objective...............:   1.8508922110556404e+02    1.8918744366145242e+05
Dual infeasibility......:   2.3232571354845540e-11    2.3746984065585787e-08
Constraint violation....:   8.8817841970012523e-16    8.8817841970012523e-16
Complementarity.........:   3.0929916644957320e-09    3.1614763019527215e-06
Overall NLP error.......:   3.0929916644957320e-09    3.1614763019527215e-06


Number of objective function evaluations             = 21
Number of objective gradient evaluations             = 21
Number of equality constraint evaluations            = 21
Number of inequality constraint evaluations          = 21
Number of equality constraint Jacobian evaluations   = 21
Number of inequality constraint Jacobian evaluations = 21
Number of Lagrangian Hessian evaluations             = 20
Total CPU secs in IPOPT (w/o function evaluations)   =      0.012
Total CPU secs in NLP function evaluations           =      0.000

EXIT: Optimal Solution Found.

Time elapsed: 0.145401000977